(set-logic QF_LIA)
(declare-fun x0 () Int)
(declare-fun x1 () Int)
(declare-fun x2 () Int)
(declare-fun x3 () Int)
(declare-fun x4 () Int)
(declare-fun x5 () Int)
(declare-fun x6 () Int)
(declare-fun x7 () Int)
(declare-fun x8 () Int)
(declare-fun x9 () Int)
(declare-fun A0 () Bool)
(declare-fun A1 () Bool)
(declare-fun A2 () Bool)
(declare-fun A3 () Bool)
(declare-fun A4 () Bool)
(declare-fun A5 () Bool)
(declare-fun A7 () Bool)
(declare-fun A8 () Bool)
(declare-fun A9 () Bool)
(assert (let ((.def_0 (* (- 1) x3))) (let ((.def_1 (< .def_0 (- 1)))) (let ((.def_2 (not .def_1))) (let ((.def_3 (or A7 .def_2))) (let ((.def_4 (not .def_3))) (let ((.def_5 (* (- 1) x9))) (let ((.def_6 (< .def_5 1))) (let ((.def_7 (* 1 x2))) (let ((.def_8 (+ .def_7 .def_0))) (let ((.def_9 (< .def_8 1))) (let ((.def_10 (not .def_9))) (let ((.def_11 (or .def_10 .def_6))) (let ((.def_12 (not .def_11))) (let ((.def_13 (or .def_12 .def_4))) (let ((.def_14 (or A7 A4))) (let ((.def_15 (not .def_14))) (let ((.def_16 (* 1 x9))) (let ((.def_17 (+ .def_16 .def_0))) (let ((.def_18 (< .def_17 (- 1)))) (let ((.def_19 (not .def_18))) (let ((.def_20 (or A9 .def_19))) (let ((.def_21 (not .def_20))) (let ((.def_22 (or .def_21 .def_15))) (let ((.def_23 (not .def_22))) (let ((.def_24 (and .def_23 .def_13))) (let ((.def_25 (* (- 1) x4))) (let ((.def_26 (< .def_25 (- 1)))) (let ((.def_27 (* 1 x0))) (let ((.def_28 (< .def_27 (- 1)))) (let ((.def_29 (and .def_28 .def_26))) (let ((.def_30 (not .def_29))) (let ((.def_31 (* 1 x7))) (let ((.def_32 (* (- 1) x2))) (let ((.def_33 (+ .def_32 .def_31))) (let ((.def_34 (< .def_33 (- 1)))) (let ((.def_35 (not .def_34))) (let ((.def_36 (< .def_25 1))) (let ((.def_37 (and .def_36 .def_35))) (let ((.def_38 (not .def_37))) (let ((.def_39 (or .def_38 .def_30))) (let ((.def_40 (not .def_39))) (let ((.def_41 (* (- 1) x8))) (let ((.def_42 (+ .def_31 .def_41))) (let ((.def_43 (< .def_42 (- 1)))) (let ((.def_44 (or .def_43 A1))) (let ((.def_45 (not .def_44))) (let ((.def_46 (* 1 x3))) (let ((.def_47 (+ .def_16 .def_46))) (let ((.def_48 (< .def_47 1))) (let ((.def_49 (not A2))) (let ((.def_50 (and .def_49 .def_48))) (let ((.def_51 (or .def_50 .def_45))) (let ((.def_52 (and .def_51 .def_40))) (let ((.def_53 (or .def_52 .def_24))) (let ((.def_54 (not .def_53))) (let ((.def_55 (* 1 x6))) (let ((.def_56 (+ .def_55 .def_0))) (let ((.def_57 (< .def_56 (- 1)))) (let ((.def_58 (not A9))) (let ((.def_59 (and .def_58 .def_57))) (let ((.def_60 (< .def_32 1))) (let ((.def_61 (not .def_60))) (let ((.def_62 (not A8))) (let ((.def_63 (= .def_62 .def_61))) (let ((.def_64 (and .def_63 .def_59))) (let ((.def_65 (not .def_64))) (let ((.def_66 (+ .def_32 .def_16))) (let ((.def_67 (< .def_66 (- 1)))) (let ((.def_68 (not A0))) (let ((.def_69 (= .def_68 .def_67))) (let ((.def_70 (not .def_69))) (let ((.def_71 (< .def_55 1))) (let ((.def_72 (not .def_71))) (let ((.def_73 (or .def_58 .def_72))) (let ((.def_74 (or .def_73 .def_70))) (let ((.def_75 (not .def_74))) (let ((.def_76 (and .def_75 .def_65))) (let ((.def_77 (not .def_76))) (let ((.def_78 (not A5))) (let ((.def_79 (or .def_62 .def_78))) (let ((.def_80 (or .def_62 .def_62))) (let ((.def_81 (not .def_80))) (let ((.def_82 (or .def_81 .def_79))) (let ((.def_83 (* 1 x4))) (let ((.def_84 (* 1 x8))) (let ((.def_85 (+ .def_84 .def_83))) (let ((.def_86 (< .def_85 (- 1)))) (let ((.def_87 (not A3))) (let ((.def_88 (or .def_87 .def_86))) (let ((.def_89 (< .def_84 (- 1)))) (let ((.def_90 (and A8 .def_89))) (let ((.def_91 (not .def_90))) (let ((.def_92 (and .def_91 .def_88))) (let ((.def_93 (not .def_92))) (let ((.def_94 (and .def_93 .def_82))) (let ((.def_95 (= .def_94 .def_77))) (let ((.def_96 (= .def_95 .def_54))) (let ((.def_97 (+ .def_16 .def_31))) (let ((.def_98 (< .def_97 (- 1)))) (let ((.def_99 (= A0 .def_98))) (let ((.def_100 (+ .def_32 .def_41))) (let ((.def_101 (< .def_100 1))) (let ((.def_102 (not .def_101))) (let ((.def_103 (+ .def_32 .def_5))) (let ((.def_104 (< .def_103 (- 1)))) (let ((.def_105 (not .def_104))) (let ((.def_106 (or .def_105 .def_102))) (let ((.def_107 (not .def_106))) (let ((.def_108 (or .def_107 .def_99))) (let ((.def_109 (or .def_6 .def_49))) (let ((.def_110 (* (- 1) x0))) (let ((.def_111 (+ .def_110 .def_32))) (let ((.def_112 (< .def_111 (- 1)))) (let ((.def_113 (* (- 1) x7))) (let ((.def_114 (+ .def_113 .def_83))) (let ((.def_115 (< .def_114 1))) (let ((.def_116 (not .def_115))) (let ((.def_117 (and .def_116 .def_112))) (let ((.def_118 (or .def_117 .def_109))) (let ((.def_119 (and .def_118 .def_108))) (let ((.def_120 (not .def_119))) (let ((.def_121 (* (- 1) x5))) (let ((.def_122 (+ .def_55 .def_121))) (let ((.def_123 (< .def_122 1))) (let ((.def_124 (not .def_123))) (let ((.def_125 (and .def_124 A8))) (let ((.def_126 (not .def_125))) (let ((.def_127 (* (- 1) x6))) (let ((.def_128 (* 1 x1))) (let ((.def_129 (+ .def_128 .def_127))) (let ((.def_130 (< .def_129 1))) (let ((.def_131 (not .def_130))) (let ((.def_132 (* (- 1) x1))) (let ((.def_133 (< .def_132 1))) (let ((.def_134 (not .def_133))) (let ((.def_135 (and .def_134 .def_131))) (let ((.def_136 (not .def_135))) (let ((.def_137 (= .def_136 .def_126))) (let ((.def_138 (+ .def_84 .def_121))) (let ((.def_139 (< .def_138 1))) (let ((.def_140 (or .def_139 A2))) (let ((.def_141 (< .def_113 (- 1)))) (let ((.def_142 (not .def_141))) (let ((.def_143 (and .def_142 .def_57))) (let ((.def_144 (or .def_143 .def_140))) (let ((.def_145 (not .def_144))) (let ((.def_146 (and .def_145 .def_137))) (let ((.def_147 (not .def_146))) (let ((.def_148 (and .def_147 .def_120))) (let ((.def_149 (not .def_148))) (let ((.def_150 (+ .def_121 .def_83))) (let ((.def_151 (< .def_150 (- 1)))) (let ((.def_152 (not .def_151))) (let ((.def_153 (< .def_31 1))) (let ((.def_154 (and .def_153 .def_152))) (let ((.def_155 (not .def_154))) (let ((.def_156 (not A7))) (let ((.def_157 (and .def_156 .def_68))) (let ((.def_158 (not .def_157))) (let ((.def_159 (or .def_158 .def_155))) (let ((.def_160 (not A1))) (let ((.def_161 (or A7 .def_160))) (let ((.def_162 (< .def_7 (- 1)))) (let ((.def_163 (not .def_162))) (let ((.def_164 (* 1 x5))) (let ((.def_165 (+ .def_164 .def_25))) (let ((.def_166 (< .def_165 (- 1)))) (let ((.def_167 (not .def_166))) (let ((.def_168 (or .def_167 .def_163))) (let ((.def_169 (not .def_168))) (let ((.def_170 (and .def_169 .def_161))) (let ((.def_171 (not .def_170))) (let ((.def_172 (and .def_171 .def_159))) (let ((.def_173 (not .def_172))) (let ((.def_174 (or A0 .def_28))) (let ((.def_175 (not .def_174))) (let ((.def_176 (< .def_16 (- 1)))) (let ((.def_177 (not .def_176))) (let ((.def_178 (and .def_177 A4))) (let ((.def_179 (not .def_178))) (let ((.def_180 (and .def_179 .def_175))) (let ((.def_181 (not .def_180))) (let ((.def_182 (not A4))) (let ((.def_183 (+ .def_128 .def_46))) (let ((.def_184 (< .def_183 (- 1)))) (let ((.def_185 (not .def_184))) (let ((.def_186 (= .def_185 .def_182))) (let ((.def_187 (+ .def_113 .def_32))) (let ((.def_188 (< .def_187 (- 1)))) (let ((.def_189 (and .def_188 A8))) (let ((.def_190 (not .def_189))) (let ((.def_191 (or .def_190 .def_186))) (let ((.def_192 (not .def_191))) (let ((.def_193 (or .def_192 .def_181))) (let ((.def_194 (not .def_193))) (let ((.def_195 (and .def_194 .def_173))) (let ((.def_196 (or .def_195 .def_149))) (let ((.def_197 (= .def_196 .def_96))) (let ((.def_198 (<= x9 1))) (let ((.def_199 (<= 0 x9))) (let ((.def_200 (<= x8 1))) (let ((.def_201 (<= 0 x8))) (let ((.def_202 (<= x7 1))) (let ((.def_203 (<= 0 x7))) (let ((.def_204 (<= x6 1))) (let ((.def_205 (<= 0 x6))) (let ((.def_206 (<= x5 1))) (let ((.def_207 (<= 0 x5))) (let ((.def_208 (<= x4 1))) (let ((.def_209 (<= 0 x4))) (let ((.def_210 (<= x3 1))) (let ((.def_211 (<= 0 x3))) (let ((.def_212 (<= x2 1))) (let ((.def_213 (<= 0 x2))) (let ((.def_214 (<= x1 1))) (let ((.def_215 (<= 0 x1))) (let ((.def_216 (<= x0 1))) (let ((.def_217 (<= 0 x0))) (let ((.def_218 (and .def_217 .def_216 .def_215 .def_214 .def_213 .def_212 .def_211 .def_210 .def_209 .def_208 .def_207 .def_206 .def_205 .def_204 .def_203 .def_202 .def_201 .def_200 .def_199 .def_198 .def_197))) .def_218))))))))))))))))))))))))))))))))))))))))))))))))))))))))))))))))))))))))))))))))))))))))))))))))))))))))))))))))))))))))))))))))))))))))))))))))))))))))))))))))))))))))))))))))))))))))))))))))))))))))))))))))))))))))))))
(check-sat)
